Reading instance from file data/g01.dat
Number of nodes: 11
Number of edges: 32
initialize CPLEX ... done.
Calling CPLEX solve ...
Lazy constraint(s) or lazy constraint callback is present.
    Disabling dual reductions (CPX_PARAM_REDUCE) in presolve.
    Disabling non-linear reductions (CPX_PARAM_PRELINEAR) in presolve.
         Disabling repeat represolve because of lazy constraint/incumbent callback.
Tried aggregator 2 times.
MIP Presolve eliminated 43 rows and 42 columns.
MIP Presolve modified 162 coefficients.
Aggregator did 10 substitutions.
Reduced MIP has 45 rows, 86 columns, and 270 nonzeros.
Reduced MIP has 86 binaries, 0 generals, 0 SOSs, and 0 indicators.
Presolve time = 0.00 sec. (0.36 ticks)
Probing time = 0.00 sec. (0.09 ticks)
Clique table members: 121.
MIP emphasis: balance optimality and feasibility.
MIP search method: traditional branch-and-cut.
Parallel mode: none, using 1 thread.
Root relaxation solution time = 0.00 sec. (0.07 ticks)

        Nodes                                         Cuts/
   Node  Left     Objective  IInf  Best Integer    Best Bound    ItCnt     Gap         Variable B NodeID Parent  Depth

      0     0       46.0000     4                     46.0000        2         
*     0+    0                           67.0000       46.0000            31.34%
*     0+    0                           46.0000       46.0000             0.00%
      0     0        cutoff             46.0000       46.0000        3    0.00%                        0             0
Elapsed time = 0.01 sec. (0.76 ticks, tree = 0.01 MB, solutions = 2)

Root node processing (before b&c):
  Real time             =    0.01 sec. (0.76 ticks)
Sequential b&c:
  Real time             =    0.00 sec. (0.00 ticks)
                          ------------
Total (root+branch&cut) =    0.01 sec. (0.76 ticks)
CPLEX finished.

CPLEX status: Optimal
Branch-and-Bound nodes: 0
Objective value: 46
CPU time: 0.01

Reading instance from file data/g01.dat
Number of nodes: 11
Number of edges: 32
initialize CPLEX ... done.
Calling CPLEX solve ...
Lazy constraint(s) or lazy constraint callback is present.
    Disabling dual reductions (CPX_PARAM_REDUCE) in presolve.
    Disabling non-linear reductions (CPX_PARAM_PRELINEAR) in presolve.
         Disabling repeat represolve because of lazy constraint/incumbent callback.
Tried aggregator 2 times.
MIP Presolve eliminated 43 rows and 42 columns.
MIP Presolve modified 162 coefficients.
Aggregator did 10 substitutions.
Reduced MIP has 45 rows, 86 columns, and 270 nonzeros.
Reduced MIP has 86 binaries, 0 generals, 0 SOSs, and 0 indicators.
Presolve time = 0.00 sec. (0.36 ticks)
Probing time = 0.00 sec. (0.09 ticks)
Clique table members: 121.
MIP emphasis: balance optimality and feasibility.
MIP search method: traditional branch-and-cut.
Parallel mode: none, using 1 thread.
Root relaxation solution time = 0.00 sec. (0.07 ticks)

        Nodes                                         Cuts/
   Node  Left     Objective  IInf  Best Integer    Best Bound    ItCnt     Gap         Variable B NodeID Parent  Depth

      0     0       46.0000     4                     46.0000        2         
*     0+    0                           67.0000       46.0000            31.34%
*     0+    0                           46.0000       46.0000             0.00%
      0     0        cutoff             46.0000       46.0000        3    0.00%                        0             0
Elapsed time = 0.01 sec. (0.76 ticks, tree = 0.01 MB, solutions = 2)

Root node processing (before b&c):
  Real time             =    0.01 sec. (0.76 ticks)
Sequential b&c:
  Real time             =    0.00 sec. (0.00 ticks)
                          ------------
Total (root+branch&cut) =    0.01 sec. (0.76 ticks)
CPLEX finished.

CPLEX status: Optimal
Branch-and-Bound nodes: 0
Objective value: 46
CPU time: 0
Added inequalities: 0

